clingo version 5.5.2
Reading from ...nt/beegfs/home/jubruns/encoding/mif.lp ...
Solving...
Answer: 1
move(1,(1,6),(1,7),1) move(1,(1,7),(1,8),2) move(1,(1,8),(2,8),3) move(1,(2,8),(3,8),4) move(1,(3,8),(3,9),5) move(1,(3,9),(4,9),6) move(1,(4,9),(4,8),7) move(1,(4,8),(5,8),8) move(1,(5,8),(5,9),9) move(1,(5,9),(6,9),10) move(1,(6,9),(7,9),11) move(1,(7,9),(7,8),12) move(1,(7,8),(8,8),13) move(1,(8,8),(9,8),14) move(1,(9,8),(9,7),15) move(1,(9,7),(9,6),16) move(2,(11,11),(10,11),1) move(2,(10,11),(10,10),2) move(2,(10,10),(9,10),3) move(2,(9,10),(8,10),4) move(2,(8,10),(7,10),5) move(2,(7,10),(7,9),6) move(2,(7,9),(6,9),7) move(2,(6,9),(5,9),8) move(2,(5,9),(4,9),9) move(2,(4,9),(3,9),10) move(2,(3,9),(2,9),11) move(2,(2,9),(1,9),12) move(2,(1,9),(1,8),13) move(2,(1,8),(1,7),14) move(2,(1,7),(1,6),16) move(3,(2,1),(2,2),3) move(3,(2,2),(2,3),4) move(3,(2,3),(2,2),5) move(3,(2,2),(3,2),6) move(3,(3,2),(4,2),7) move(3,(4,2),(3,2),10) move(3,(3,2),(2,2),11) move(3,(2,2),(3,2),13) move(3,(3,2),(2,2),14) move(3,(2,2),(3,2),15) move(3,(3,2),(2,2),16) move(4,(9,10),(9,11),3) move(4,(9,11),(9,10),4) move(4,(9,10),(8,10),5) move(4,(8,10),(8,9),7) move(4,(8,9),(8,10),8) move(4,(8,10),(9,10),9) move(4,(9,10),(9,9),10) move(4,(9,9),(10,9),11) move(4,(10,9),(10,8),12) move(4,(10,8),(9,8),13) move(4,(9,8),(9,9),14) move(4,(9,9),(10,9),15) move(4,(10,9),(9,9),16) move(5,(11,5),(10,5),1) move(5,(10,5),(9,5),2) move(5,(9,5),(9,6),3) move(5,(9,6),(9,7),4) move(5,(9,7),(9,8),5) move(5,(9,8),(9,9),6) move(5,(9,9),(9,8),7) move(5,(9,8),(9,7),8) move(5,(9,7),(9,6),9) move(5,(9,6),(9,7),10) move(5,(9,7),(9,8),11) move(5,(9,8),(8,8),12) move(5,(8,8),(8,9),13) move(5,(8,9),(7,9),15) move(5,(7,9),(6,9),16) move(6,(11,9),(10,9),3) move(6,(10,9),(10,10),4) move(6,(10,10),(10,11),5) move(6,(10,11),(11,11),6) move(6,(11,11),(10,11),7) move(6,(10,11),(10,10),8) move(6,(10,10),(9,10),10) move(6,(9,10),(9,9),11) move(6,(9,9),(10,9),12) move(6,(10,9),(10,8),13) move(6,(10,8),(10,9),14) move(6,(10,9),(10,10),15) move(6,(10,10),(11,10),16) move(7,(4,9),(3,9),3) move(7,(3,9),(4,9),4) move(7,(4,9),(5,9),5) move(7,(5,9),(5,8),6) move(7,(5,8),(5,7),7) move(7,(5,7),(4,7),8) move(7,(4,7),(4,8),9) move(7,(4,8),(4,9),10) move(7,(4,9),(5,9),12) move(7,(5,9),(6,9),13) move(7,(6,9),(7,9),14) move(7,(7,9),(7,8),15) move(7,(7,8),(7,7),16) move(8,(9,6),(9,5),1) move(8,(9,5),(9,4),2) move(8,(9,4),(9,3),3) move(8,(9,3),(9,4),4) move(8,(9,4),(9,3),5) move(8,(9,3),(10,3),7) move(8,(10,3),(10,2),8) move(8,(10,2),(9,2),9) move(8,(9,2),(8,2),10) move(8,(8,2),(7,2),12) move(8,(7,2),(7,1),13) move(8,(7,1),(6,1),14) move(8,(6,1),(5,1),15) move(8,(5,1),(6,1),16) move(9,(1,4),(1,5),2) move(9,(1,5),(1,6),4) move(9,(1,6),(1,7),5) move(9,(1,7),(2,7),6) move(9,(2,7),(2,8),7) move(9,(2,8),(2,9),8) move(9,(2,9),(2,8),9) move(9,(2,8),(1,8),10) move(9,(1,8),(1,7),11) move(9,(1,7),(1,6),12) move(9,(1,6),(1,5),13) move(9,(1,5),(1,4),14) move(9,(1,4),(1,3),15) move(9,(1,3),(1,2),16) move(10,(9,8),(9,9),2) move(10,(9,9),(8,9),4) move(10,(8,9),(7,9),5) move(10,(7,9),(6,9),6) move(10,(6,9),(5,9),7) move(10,(5,9),(4,9),8) move(10,(4,9),(3,9),9) move(10,(3,9),(2,9),10) move(10,(2,9),(2,8),11) move(10,(2,8),(1,8),12) move(10,(1,8),(1,7),13) move(10,(1,7),(1,6),14) move(10,(1,6),(1,5),15) move(10,(1,5),(1,4),16) move(11,(11,7),(11,8),1) move(11,(11,8),(10,8),2) move(11,(10,8),(9,8),3) move(11,(9,8),(8,8),4) move(11,(8,8),(8,7),5) move(11,(8,7),(9,7),6) move(11,(9,7),(9,6),7) move(11,(9,6),(9,5),8) move(11,(9,5),(9,4),10) move(11,(9,4),(8,4),12) move(11,(8,4),(9,4),13) move(11,(9,4),(10,4),14) move(11,(10,4),(11,4),15) move(11,(11,4),(11,5),16) move(12,(10,2),(10,3),3) move(12,(10,3),(9,3),4) move(12,(9,3),(8,3),5) move(12,(8,3),(8,2),6) move(12,(8,2),(8,3),7) move(12,(8,3),(9,3),8) move(12,(9,3),(8,3),9) move(12,(8,3),(8,2),12) move(12,(8,2),(9,2),13) move(12,(9,2),(9,3),14) move(12,(9,3),(9,4),15) move(12,(9,4),(10,4),16) move(13,(3,11),(3,10),2) move(13,(3,10),(2,10),3) move(13,(2,10),(2,9),4) move(13,(2,9),(1,9),5) move(13,(1,9),(2,9),6) move(13,(2,9),(3,9),7) move(13,(3,9),(3,10),8) move(13,(3,10),(4,10),9) move(13,(4,10),(5,10),10) move(13,(5,10),(5,9),11) move(13,(5,9),(6,9),12) move(13,(6,9),(7,9),13) move(13,(7,9),(7,8),14) move(13,(7,8),(8,8),15) move(13,(8,8),(8,7),16) move(14,(10,1),(10,2),3) move(14,(10,2),(9,2),4) move(14,(9,2),(8,2),5) move(14,(8,2),(9,2),6) move(14,(9,2),(8,2),7) move(14,(8,2),(8,3),8) move(14,(8,3),(8,4),9) move(14,(8,4),(8,5),10) move(14,(8,5),(9,5),11) move(14,(9,5),(9,4),12) move(14,(9,4),(10,4),13) move(14,(10,4),(10,3),14) move(14,(10,3),(9,3),15) move(14,(9,3),(10,3),16) move(15,(11,10),(10,10),3) move(15,(10,10),(10,11),4) move(15,(10,11),(9,11),5) move(15,(9,11),(9,10),6) move(15,(9,10),(9,9),7) move(15,(9,9),(9,8),8) move(15,(9,8),(8,8),10) move(15,(8,8),(8,9),11) move(15,(8,9),(8,10),12) move(15,(8,10),(9,10),13) move(15,(9,10),(10,10),14) move(15,(10,10),(10,11),15) move(15,(10,11),(11,11),16)
SATISFIABLE

Models       : 1+
Calls        : 1
Time         : 1.086s (Solving: 0.14s 1st Model: 0.14s Unsat: 0.00s)
CPU Time     : 1.048s

Choices      : 2111     (Domain: 2108)
Conflicts    : 100      (Analyzed: 100)
Restarts     : 1        (Average: 100.00 Last: 25)
Model-Level  : 157.0   
Problems     : 1        (Average Length: 0.00 Splits: 0)
Lemmas       : 100      (Deleted: 0)
  Binary     : 30       (Ratio:  30.00%)
  Ternary    : 8        (Ratio:   8.00%)
  Conflict   : 100      (Average Length:   11.2 Ratio: 100.00%) 
  Loop       : 0        (Average Length:    0.0 Ratio:   0.00%) 
  Other      : 0        (Average Length:    0.0 Ratio:   0.00%) 
Backjumps    : 100      (Average: 19.54 Max: 141 Sum:   1954)
  Executed   : 100      (Average: 19.54 Max: 141 Sum:   1954 Ratio: 100.00%)
  Bounded    : 0        (Average:  0.00 Max:   0 Sum:      0 Ratio:   0.00%)

Rules        : 283387   (Original: 239321)
  Choice     : 240     
  Heuristic  : 23738    (Original: 24198)
Atoms        : 116563   (Original: 101766 Auxiliary: 14797)
Disjunctions : 0        (Original: 1)
Bodies       : 161079   (Original: 131493)
  Count      : 1200     (Original: 2036)
Equivalences : 94123    (Atom=Atom: 283 Body=Body: 299 Other: 93541)
Tight        : Yes
Variables    : 158059   (Eliminated:    0 Frozen: 90984)
Constraints  : 387511   (Binary:  83.7% Ternary:  12.2% Other:   4.1%)

